read using pysimm.system.read_mol

240 atoms
240 bonds
360 angles
480 dihedrals
0 impropers

2 atom types
2 bond types
2 angle types
1 dihedral types

-8.244302 8.244302 xlo xhi
-8.244302 8.244302 ylo yhi
-27.481008 27.481008 zlo zhi

Masses

   1	12.01	# c2
   2	1.008	# hc

Pair Coeffs

   1	0.0988	3.3152123099438304	# c2
   2	0.0208	2.600176998764394	# hc

Bond Coeffs

   1	393.86	1.087	# c2,hc
   2	481.83	1.334	# c2,c2

Angle Coeffs

   1	50.527	119.7	# c2,c2,hc
   2	71.539	121.81	# c2,c2,c2

Dihedral Coeffs

   1	1	6.65	2	180	# X,c2,c2,X

Atoms

   1	1	1	-0.06227610594861938	4.628	-3.929	11.869
   2	1	1	-0.06227610594861938	4.564	-5.118	12.595
   3	1	1	-0.06227610594861938	3.326	-5.694	12.882
   4	1	1	-0.06227610594861938	2.153	-5.081	12.442
   5	1	1	-0.06227610594861938	2.218	-3.892	11.716
   6	1	1	-0.06227610594861938	3.455	-3.316	11.429
   7	1	2	0.06227610594861938	5.593	-3.48	11.646
   8	1	2	0.06227610594861938	5.478	-5.595	12.938
   9	1	2	0.06227610594861938	3.276	-6.62	13.448
  10	1	2	0.06227610594861938	1.189	-5.53	12.665
  11	1	2	0.06227610594861938	1.304	-3.414	11.373
  12	1	2	0.06227610594861938	3.505	-2.389	10.863
  13	2	1	-0.06227610594861938	-0.332	-0.889	-11.059
  14	2	1	-0.06227610594861938	-1.593	-1.266	-11.52
  15	2	1	-0.06227610594861938	-2.433	-0.319	-12.105
  16	2	1	-0.06227610594861938	-2.012	1.005	-12.23
  17	2	1	-0.06227610594861938	-0.75	1.382	-11.768
  18	2	1	-0.06227610594861938	0.089	0.434	-11.183
  19	2	2	0.06227610594861938	0.322	-1.628	-10.602
  20	2	2	0.06227610594861938	-1.922	-2.297	-11.423
  21	2	2	0.06227610594861938	-3.416	-0.612	-12.465
  22	2	2	0.06227610594861938	-2.666	1.743	-12.686
  23	2	2	0.06227610594861938	-0.422	2.413	-11.865
  24	2	2	0.06227610594861938	1.072	0.728	-10.823
  25	3	1	-0.06227610594861938	-0.203	-1.982	-17.674
  26	3	1	-0.06227610594861938	-0.105	-2.742	-18.84
  27	3	1	-0.06227610594861938	0.066	-4.124	-18.76
  28	3	1	-0.06227610594861938	0.141	-4.746	-17.514
  29	3	1	-0.06227610594861938	0.043	-3.987	-16.348
  30	3	1	-0.06227610594861938	-0.129	-2.605	-16.428
  31	3	2	0.06227610594861938	-0.337	-0.906	-17.736
  32	3	2	0.06227610594861938	-0.163	-2.257	-19.811
  33	3	2	0.06227610594861938	0.143	-4.715	-19.668
  34	3	2	0.06227610594861938	0.275	-5.823	-17.451
  35	3	2	0.06227610594861938	0.101	-4.472	-15.377
  36	3	2	0.06227610594861938	-0.205	-2.013	-15.52
  37	4	1	-0.06227610594861938	5.334	0.2	5.655
  38	4	1	-0.06227610594861938	4.309	0.767	4.898
  39	4	1	-0.06227610594861938	3.506	1.766	5.449
  40	4	1	-0.06227610594861938	3.729	2.197	6.757
  41	4	1	-0.06227610594861938	4.754	1.63	7.513
  42	4	1	-0.06227610594861938	5.557	0.631	6.962
  43	4	2	0.06227610594861938	5.96	-0.578	5.225
  44	4	2	0.06227610594861938	4.135	0.431	3.879
  45	4	2	0.06227610594861938	2.707	2.208	4.86
  46	4	2	0.06227610594861938	3.103	2.976	7.186
  47	4	2	0.06227610594861938	4.928	1.966	8.532
  48	4	2	0.06227610594861938	6.356	0.189	7.552
  49	5	1	-0.06227610594861938	0.982	-0.622	-5.342
  50	5	1	-0.06227610594861938	1.127	-1.869	-5.951
  51	5	1	-0.06227610594861938	2.395	-2.329	-6.303
  52	5	1	-0.06227610594861938	3.519	-1.544	-6.046
  53	5	1	-0.06227610594861938	3.374	-0.297	-5.438
  54	5	1	-0.06227610594861938	2.105	0.164	-5.086
  55	5	2	0.06227610594861938	-0.007	-0.263	-5.068
  56	5	2	0.06227610594861938	0.251	-2.481	-6.15
  57	5	2	0.06227610594861938	2.508	-3.301	-6.777
  58	5	2	0.06227610594861938	4.507	-1.903	-6.321
  59	5	2	0.06227610594861938	4.249	0.315	-5.238
  60	5	2	0.06227610594861938	1.992	1.135	-4.612
  61	6	1	-0.06227610594861938	-2.79	4.258	19.16
  62	6	1	-0.06227610594861938	-3.324	2.99	18.931
  63	6	1	-0.06227610594861938	-2.846	2.212	17.877
  64	6	1	-0.06227610594861938	-1.835	2.702	17.051
  65	6	1	-0.06227610594861938	-1.301	3.97	17.279
  66	6	1	-0.06227610594861938	-1.779	4.748	18.334
  67	6	2	0.06227610594861938	-3.162	4.864	19.981
  68	6	2	0.06227610594861938	-4.112	2.608	19.575
  69	6	2	0.06227610594861938	-3.262	1.224	17.699
  70	6	2	0.06227610594861938	-1.463	2.096	16.229
  71	6	2	0.06227610594861938	-0.513	4.352	16.636
  72	6	2	0.06227610594861938	-1.363	5.736	18.512
  73	7	1	-0.06227610594861938	-2.334	-4.624	-3.8
  74	7	1	-0.06227610594861938	-3.167	-3.528	-4.023
  75	7	1	-0.06227610594861938	-3.716	-2.838	-2.942
  76	7	1	-0.06227610594861938	-3.432	-3.245	-1.639
  77	7	1	-0.06227610594861938	-2.599	-4.341	-1.415
  78	7	1	-0.06227610594861938	-2.05	-5.031	-2.496
  79	7	2	0.06227610594861938	-1.906	-5.162	-4.642
  80	7	2	0.06227610594861938	-3.388	-3.212	-5.039
  81	7	2	0.06227610594861938	-4.365	-1.984	-3.116
  82	7	2	0.06227610594861938	-3.86	-2.707	-0.797
  83	7	2	0.06227610594861938	-2.378	-4.657	-0.4
  84	7	2	0.06227610594861938	-1.4	-5.885	-2.322
  85	8	1	-0.06227610594861938	1.831	-0.275	20.028
  86	8	1	-0.06227610594861938	2.782	0.725	20.231
  87	8	1	-0.06227610594861938	2.631	1.628	21.283
  88	8	1	-0.06227610594861938	1.528	1.532	22.132
  89	8	1	-0.06227610594861938	0.577	0.532	21.929
  90	8	1	-0.06227610594861938	0.729	-0.372	20.877
  91	8	2	0.06227610594861938	1.949	-0.979	19.209
  92	8	2	0.06227610594861938	3.641	0.8	19.57
  93	8	2	0.06227610594861938	3.372	2.407	21.442
  94	8	2	0.06227610594861938	1.41	2.235	22.952
  95	8	2	0.06227610594861938	-0.282	0.456	22.59
  96	8	2	0.06227610594861938	-0.012	-1.151	20.719
  97	9	1	-0.06227610594861938	3.671	-0.348	-14.222
  98	9	1	-0.06227610594861938	2.643	-1.197	-14.63
  99	9	1	-0.06227610594861938	2.933	-2.503	-15.027
 100	9	1	-0.06227610594861938	4.251	-2.958	-15.016
 101	9	1	-0.06227610594861938	5.279	-2.109	-14.608
 102	9	1	-0.06227610594861938	4.989	-0.804	-14.211
 103	9	2	0.06227610594861938	3.445	0.669	-13.913
 104	9	2	0.06227610594861938	1.616	-0.842	-14.639
 105	9	2	0.06227610594861938	2.132	-3.165	-15.345
 106	9	2	0.06227610594861938	4.477	-3.975	-15.325
 107	9	2	0.06227610594861938	6.306	-2.464	-14.599
 108	9	2	0.06227610594861938	5.79	-0.142	-13.893
 109	10	1	-0.06227610594861938	-0.368	2.668	10.534
 110	10	1	-0.06227610594861938	-0.488	3.978	10.07
 111	10	1	-0.06227610594861938	-0.722	4.22	8.717
 112	10	1	-0.06227610594861938	-0.835	3.151	7.827
 113	10	1	-0.06227610594861938	-0.715	1.841	8.291
 114	10	1	-0.06227610594861938	-0.481	1.6	9.644
 115	10	2	0.06227610594861938	-0.185	2.48	11.589
 116	10	2	0.06227610594861938	-0.399	4.81	10.763
 117	10	2	0.06227610594861938	-0.815	5.24	8.355
 118	10	2	0.06227610594861938	-1.018	3.34	6.772
 119	10	2	0.06227610594861938	-0.804	1.009	7.598
 120	10	2	0.06227610594861938	-0.388	0.579	10.006
 121	11	1	-0.06227610594861938	2.709	5.41	-8.961
 122	11	1	-0.06227610594861938	2.367	4.46	-9.923
 123	11	1	-0.06227610594861938	2.478	3.1	-9.631
 124	11	1	-0.06227610594861938	2.932	2.691	-8.378
 125	11	1	-0.06227610594861938	3.274	3.641	-7.415
 126	11	1	-0.06227610594861938	3.163	5.0	-7.707
 127	11	2	0.06227610594861938	2.622	6.469	-9.188
 128	11	2	0.06227610594861938	2.013	4.779	-10.9
 129	11	2	0.06227610594861938	2.212	2.36	-10.381
 130	11	2	0.06227610594861938	3.019	1.632	-8.15
 131	11	2	0.06227610594861938	3.628	3.322	-6.438
 132	11	2	0.06227610594861938	3.429	5.74	-6.957
 133	12	1	-0.06227610594861938	1.132	-2.863	1.97
 134	12	1	-0.06227610594861938	-0.202	-2.476	2.093
 135	12	1	-0.06227610594861938	-0.795	-2.407	3.353
 136	12	1	-0.06227610594861938	-0.054	-2.725	4.491
 137	12	1	-0.06227610594861938	1.28	-3.111	4.369
 138	12	1	-0.06227610594861938	1.874	-3.18	3.108
 139	12	2	0.06227610594861938	1.595	-2.916	0.988
 140	12	2	0.06227610594861938	-0.78	-2.229	1.206
 141	12	2	0.06227610594861938	-1.835	-2.106	3.448
 142	12	2	0.06227610594861938	-0.516	-2.671	5.473
 143	12	2	0.06227610594861938	1.858	-3.359	5.255
 144	12	2	0.06227610594861938	2.914	-3.481	3.013
 145	13	1	-0.06227610594861938	-3.684	0.986	-21.672
 146	13	1	-0.06227610594861938	-3.913	0.385	-20.435
 147	13	1	-0.06227610594861938	-4.253	1.168	-19.331
 148	13	1	-0.06227610594861938	-4.363	2.552	-19.465
 149	13	1	-0.06227610594861938	-4.134	3.153	-20.703
 150	13	1	-0.06227610594861938	-3.795	2.37	-21.807
 151	13	2	0.06227610594861938	-3.42	0.376	-22.532
 152	13	2	0.06227610594861938	-3.828	-0.693	-20.33
 153	13	2	0.06227610594861938	-4.431	0.7	-18.367
 154	13	2	0.06227610594861938	-4.627	3.162	-18.606
 155	13	2	0.06227610594861938	-4.219	4.231	-20.808
 156	13	2	0.06227610594861938	-3.616	2.838	-22.771
 157	14	1	-0.06227610594861938	2.578	-1.472	-22.379
 158	14	1	-0.06227610594861938	2.254	-2.816	-22.563
 159	14	1	-0.06227610594861938	2.354	-3.71	-21.497
 160	14	1	-0.06227610594861938	2.778	-3.26	-20.246
 161	14	1	-0.06227610594861938	3.102	-1.916	-20.062
 162	14	1	-0.06227610594861938	3.002	-1.022	-21.129
 163	14	2	0.06227610594861938	2.5	-0.776	-23.209
 164	14	2	0.06227610594861938	1.923	-3.167	-23.537
 165	14	2	0.06227610594861938	2.101	-4.757	-21.64
 166	14	2	0.06227610594861938	2.856	-3.956	-19.416
 167	14	2	0.06227610594861938	3.432	-1.565	-19.088
 168	14	2	0.06227610594861938	3.255	0.025	-20.985
 169	15	1	-0.06227610594861938	-0.848	2.705	3.27
 170	15	1	-0.06227610594861938	-2.031	2.277	3.872
 171	15	1	-0.06227610594861938	-3.068	1.769	3.089
 172	15	1	-0.06227610594861938	-2.922	1.689	1.704
 173	15	1	-0.06227610594861938	-1.738	2.117	1.102
 174	15	1	-0.06227610594861938	-0.702	2.625	1.885
 175	15	2	0.06227610594861938	-0.04	3.1	3.879
 176	15	2	0.06227610594861938	-2.145	2.339	4.951
 177	15	2	0.06227610594861938	-3.99	1.436	3.558
 178	15	2	0.06227610594861938	-3.729	1.293	1.094
 179	15	2	0.06227610594861938	-1.624	2.054	0.023
 180	15	2	0.06227610594861938	0.22	2.958	1.416
 181	16	1	-0.06227610594861938	-2.116	-3.458	20.585
 182	16	1	-0.06227610594861938	-1.608	-2.982	19.376
 183	16	1	-0.06227610594861938	-0.237	-3.031	19.127
 184	16	1	-0.06227610594861938	0.628	-3.556	20.088
 185	16	1	-0.06227610594861938	0.12	-4.031	21.297
 186	16	1	-0.06227610594861938	-1.251	-3.982	21.546
 187	16	2	0.06227610594861938	-3.184	-3.419	20.778
 188	16	2	0.06227610594861938	-2.282	-2.574	18.627
 189	16	2	0.06227610594861938	0.159	-2.661	18.185
 190	16	2	0.06227610594861938	1.696	-3.594	19.895
 191	16	2	0.06227610594861938	0.794	-4.44	22.046
 192	16	2	0.06227610594861938	-1.647	-4.353	22.488
 193	17	1	-0.06227610594861938	-1.515	-3.129	12.424
 194	17	1	-0.06227610594861938	-2.78	-3.707	12.528
 195	17	1	-0.06227610594861938	-3.72	-3.514	11.515
 196	17	1	-0.06227610594861938	-3.395	-2.743	10.399
 197	17	1	-0.06227610594861938	-2.13	-2.165	10.296
 198	17	1	-0.06227610594861938	-1.19	-2.358	11.308
 199	17	2	0.06227610594861938	-0.783	-3.28	13.213
 200	17	2	0.06227610594861938	-3.034	-4.308	13.397
 201	17	2	0.06227610594861938	-4.706	-3.965	11.596
 202	17	2	0.06227610594861938	-4.128	-2.593	9.611
 203	17	2	0.06227610594861938	-1.877	-1.565	9.426
 204	17	2	0.06227610594861938	-0.204	-1.908	11.227
 205	18	1	-0.06227610594861938	5.284	-0.4	22.272
 206	18	1	-0.06227610594861938	4.759	-1.681	22.443
 207	18	1	-0.06227610594861938	3.864	-1.936	23.482
 208	18	1	-0.06227610594861938	3.494	-0.91	24.35
 209	18	1	-0.06227610594861938	4.019	0.371	24.18
 210	18	1	-0.06227610594861938	4.914	0.626	23.141
 211	18	2	0.06227610594861938	5.981	-0.202	21.463
 212	18	2	0.06227610594861938	5.048	-2.481	21.766
 213	18	2	0.06227610594861938	3.455	-2.934	23.614
 214	18	2	0.06227610594861938	2.797	-1.108	25.16
 215	18	2	0.06227610594861938	3.73	1.171	24.857
 216	18	2	0.06227610594861938	5.323	1.624	23.009
 217	19	1	-0.06227610594861938	-4.668	-5.158	-13.043
 218	19	1	-0.06227610594861938	-3.807	-5.752	-13.965
 219	19	1	-0.06227610594861938	-3.02	-4.957	-14.797
 220	19	1	-0.06227610594861938	-3.094	-3.567	-14.708
 221	19	1	-0.06227610594861938	-3.955	-2.972	-13.786
 222	19	1	-0.06227610594861938	-4.742	-3.768	-12.953
 223	19	2	0.06227610594861938	-5.282	-5.777	-12.394
 224	19	2	0.06227610594861938	-3.75	-6.835	-14.035
 225	19	2	0.06227610594861938	-2.349	-5.42	-15.516
 226	19	2	0.06227610594861938	-2.48	-2.947	-15.356
 227	19	2	0.06227610594861938	-4.012	-1.889	-13.716
 228	19	2	0.06227610594861938	-5.413	-3.304	-12.235
 229	20	1	-0.06227610594861938	4.277	-1.613	-2.002
 230	20	1	-0.06227610594861938	3.304	-0.92	-1.281
 231	20	1	-0.06227610594861938	1.99	-1.388	-1.255
 232	20	1	-0.06227610594861938	1.65	-2.549	-1.949
 233	20	1	-0.06227610594861938	2.623	-3.242	-2.67
 234	20	1	-0.06227610594861938	3.936	-2.774	-2.696
 235	20	2	0.06227610594861938	5.3	-1.248	-2.022
 236	20	2	0.06227610594861938	3.569	-0.015	-0.741
 237	20	2	0.06227610594861938	1.232	-0.849	-0.694
 238	20	2	0.06227610594861938	0.626	-2.914	-1.929
 239	20	2	0.06227610594861938	2.357	-4.146	-3.21
 240	20	2	0.06227610594861938	4.694	-3.313	-3.257

Velocities

   1	0.0	0.0	0.0
   2	0.0	0.0	0.0
   3	0.0	0.0	0.0
   4	0.0	0.0	0.0
   5	0.0	0.0	0.0
   6	0.0	0.0	0.0
   7	0.0	0.0	0.0
   8	0.0	0.0	0.0
   9	0.0	0.0	0.0
  10	0.0	0.0	0.0
  11	0.0	0.0	0.0
  12	0.0	0.0	0.0
  13	0.0	0.0	0.0
  14	0.0	0.0	0.0
  15	0.0	0.0	0.0
  16	0.0	0.0	0.0
  17	0.0	0.0	0.0
  18	0.0	0.0	0.0
  19	0.0	0.0	0.0
  20	0.0	0.0	0.0
  21	0.0	0.0	0.0
  22	0.0	0.0	0.0
  23	0.0	0.0	0.0
  24	0.0	0.0	0.0
  25	0.0	0.0	0.0
  26	0.0	0.0	0.0
  27	0.0	0.0	0.0
  28	0.0	0.0	0.0
  29	0.0	0.0	0.0
  30	0.0	0.0	0.0
  31	0.0	0.0	0.0
  32	0.0	0.0	0.0
  33	0.0	0.0	0.0
  34	0.0	0.0	0.0
  35	0.0	0.0	0.0
  36	0.0	0.0	0.0
  37	0.0	0.0	0.0
  38	0.0	0.0	0.0
  39	0.0	0.0	0.0
  40	0.0	0.0	0.0
  41	0.0	0.0	0.0
  42	0.0	0.0	0.0
  43	0.0	0.0	0.0
  44	0.0	0.0	0.0
  45	0.0	0.0	0.0
  46	0.0	0.0	0.0
  47	0.0	0.0	0.0
  48	0.0	0.0	0.0
  49	0.0	0.0	0.0
  50	0.0	0.0	0.0
  51	0.0	0.0	0.0
  52	0.0	0.0	0.0
  53	0.0	0.0	0.0
  54	0.0	0.0	0.0
  55	0.0	0.0	0.0
  56	0.0	0.0	0.0
  57	0.0	0.0	0.0
  58	0.0	0.0	0.0
  59	0.0	0.0	0.0
  60	0.0	0.0	0.0
  61	0.0	0.0	0.0
  62	0.0	0.0	0.0
  63	0.0	0.0	0.0
  64	0.0	0.0	0.0
  65	0.0	0.0	0.0
  66	0.0	0.0	0.0
  67	0.0	0.0	0.0
  68	0.0	0.0	0.0
  69	0.0	0.0	0.0
  70	0.0	0.0	0.0
  71	0.0	0.0	0.0
  72	0.0	0.0	0.0
  73	0.0	0.0	0.0
  74	0.0	0.0	0.0
  75	0.0	0.0	0.0
  76	0.0	0.0	0.0
  77	0.0	0.0	0.0
  78	0.0	0.0	0.0
  79	0.0	0.0	0.0
  80	0.0	0.0	0.0
  81	0.0	0.0	0.0
  82	0.0	0.0	0.0
  83	0.0	0.0	0.0
  84	0.0	0.0	0.0
  85	0.0	0.0	0.0
  86	0.0	0.0	0.0
  87	0.0	0.0	0.0
  88	0.0	0.0	0.0
  89	0.0	0.0	0.0
  90	0.0	0.0	0.0
  91	0.0	0.0	0.0
  92	0.0	0.0	0.0
  93	0.0	0.0	0.0
  94	0.0	0.0	0.0
  95	0.0	0.0	0.0
  96	0.0	0.0	0.0
  97	0.0	0.0	0.0
  98	0.0	0.0	0.0
  99	0.0	0.0	0.0
 100	0.0	0.0	0.0
 101	0.0	0.0	0.0
 102	0.0	0.0	0.0
 103	0.0	0.0	0.0
 104	0.0	0.0	0.0
 105	0.0	0.0	0.0
 106	0.0	0.0	0.0
 107	0.0	0.0	0.0
 108	0.0	0.0	0.0
 109	0.0	0.0	0.0
 110	0.0	0.0	0.0
 111	0.0	0.0	0.0
 112	0.0	0.0	0.0
 113	0.0	0.0	0.0
 114	0.0	0.0	0.0
 115	0.0	0.0	0.0
 116	0.0	0.0	0.0
 117	0.0	0.0	0.0
 118	0.0	0.0	0.0
 119	0.0	0.0	0.0
 120	0.0	0.0	0.0
 121	0.0	0.0	0.0
 122	0.0	0.0	0.0
 123	0.0	0.0	0.0
 124	0.0	0.0	0.0
 125	0.0	0.0	0.0
 126	0.0	0.0	0.0
 127	0.0	0.0	0.0
 128	0.0	0.0	0.0
 129	0.0	0.0	0.0
 130	0.0	0.0	0.0
 131	0.0	0.0	0.0
 132	0.0	0.0	0.0
 133	0.0	0.0	0.0
 134	0.0	0.0	0.0
 135	0.0	0.0	0.0
 136	0.0	0.0	0.0
 137	0.0	0.0	0.0
 138	0.0	0.0	0.0
 139	0.0	0.0	0.0
 140	0.0	0.0	0.0
 141	0.0	0.0	0.0
 142	0.0	0.0	0.0
 143	0.0	0.0	0.0
 144	0.0	0.0	0.0
 145	0.0	0.0	0.0
 146	0.0	0.0	0.0
 147	0.0	0.0	0.0
 148	0.0	0.0	0.0
 149	0.0	0.0	0.0
 150	0.0	0.0	0.0
 151	0.0	0.0	0.0
 152	0.0	0.0	0.0
 153	0.0	0.0	0.0
 154	0.0	0.0	0.0
 155	0.0	0.0	0.0
 156	0.0	0.0	0.0
 157	0.0	0.0	0.0
 158	0.0	0.0	0.0
 159	0.0	0.0	0.0
 160	0.0	0.0	0.0
 161	0.0	0.0	0.0
 162	0.0	0.0	0.0
 163	0.0	0.0	0.0
 164	0.0	0.0	0.0
 165	0.0	0.0	0.0
 166	0.0	0.0	0.0
 167	0.0	0.0	0.0
 168	0.0	0.0	0.0
 169	0.0	0.0	0.0
 170	0.0	0.0	0.0
 171	0.0	0.0	0.0
 172	0.0	0.0	0.0
 173	0.0	0.0	0.0
 174	0.0	0.0	0.0
 175	0.0	0.0	0.0
 176	0.0	0.0	0.0
 177	0.0	0.0	0.0
 178	0.0	0.0	0.0
 179	0.0	0.0	0.0
 180	0.0	0.0	0.0
 181	0.0	0.0	0.0
 182	0.0	0.0	0.0
 183	0.0	0.0	0.0
 184	0.0	0.0	0.0
 185	0.0	0.0	0.0
 186	0.0	0.0	0.0
 187	0.0	0.0	0.0
 188	0.0	0.0	0.0
 189	0.0	0.0	0.0
 190	0.0	0.0	0.0
 191	0.0	0.0	0.0
 192	0.0	0.0	0.0
 193	0.0	0.0	0.0
 194	0.0	0.0	0.0
 195	0.0	0.0	0.0
 196	0.0	0.0	0.0
 197	0.0	0.0	0.0
 198	0.0	0.0	0.0
 199	0.0	0.0	0.0
 200	0.0	0.0	0.0
 201	0.0	0.0	0.0
 202	0.0	0.0	0.0
 203	0.0	0.0	0.0
 204	0.0	0.0	0.0
 205	0.0	0.0	0.0
 206	0.0	0.0	0.0
 207	0.0	0.0	0.0
 208	0.0	0.0	0.0
 209	0.0	0.0	0.0
 210	0.0	0.0	0.0
 211	0.0	0.0	0.0
 212	0.0	0.0	0.0
 213	0.0	0.0	0.0
 214	0.0	0.0	0.0
 215	0.0	0.0	0.0
 216	0.0	0.0	0.0
 217	0.0	0.0	0.0
 218	0.0	0.0	0.0
 219	0.0	0.0	0.0
 220	0.0	0.0	0.0
 221	0.0	0.0	0.0
 222	0.0	0.0	0.0
 223	0.0	0.0	0.0
 224	0.0	0.0	0.0
 225	0.0	0.0	0.0
 226	0.0	0.0	0.0
 227	0.0	0.0	0.0
 228	0.0	0.0	0.0
 229	0.0	0.0	0.0
 230	0.0	0.0	0.0
 231	0.0	0.0	0.0
 232	0.0	0.0	0.0
 233	0.0	0.0	0.0
 234	0.0	0.0	0.0
 235	0.0	0.0	0.0
 236	0.0	0.0	0.0
 237	0.0	0.0	0.0
 238	0.0	0.0	0.0
 239	0.0	0.0	0.0
 240	0.0	0.0	0.0

Bonds

   1	2	1	2
   2	2	1	6
   3	1	1	7
   4	2	2	3
   5	1	2	8
   6	2	3	4
   7	1	3	9
   8	2	4	5
   9	1	4	10
  10	2	5	6
  11	1	5	11
  12	1	6	12
  13	2	13	14
  14	2	13	18
  15	1	13	19
  16	2	14	15
  17	1	14	20
  18	2	15	16
  19	1	15	21
  20	2	16	17
  21	1	16	22
  22	2	17	18
  23	1	17	23
  24	1	18	24
  25	2	25	26
  26	2	25	30
  27	1	25	31
  28	2	26	27
  29	1	26	32
  30	2	27	28
  31	1	27	33
  32	2	28	29
  33	1	28	34
  34	2	29	30
  35	1	29	35
  36	1	30	36
  37	2	37	38
  38	2	37	42
  39	1	37	43
  40	2	38	39
  41	1	38	44
  42	2	39	40
  43	1	39	45
  44	2	40	41
  45	1	40	46
  46	2	41	42
  47	1	41	47
  48	1	42	48
  49	2	49	50
  50	2	49	54
  51	1	49	55
  52	2	50	51
  53	1	50	56
  54	2	51	52
  55	1	51	57
  56	2	52	53
  57	1	52	58
  58	2	53	54
  59	1	53	59
  60	1	54	60
  61	2	61	62
  62	2	61	66
  63	1	61	67
  64	2	62	63
  65	1	62	68
  66	2	63	64
  67	1	63	69
  68	2	64	65
  69	1	64	70
  70	2	65	66
  71	1	65	71
  72	1	66	72
  73	2	73	74
  74	2	73	78
  75	1	73	79
  76	2	74	75
  77	1	74	80
  78	2	75	76
  79	1	75	81
  80	2	76	77
  81	1	76	82
  82	2	77	78
  83	1	77	83
  84	1	78	84
  85	2	85	86
  86	2	85	90
  87	1	85	91
  88	2	86	87
  89	1	86	92
  90	2	87	88
  91	1	87	93
  92	2	88	89
  93	1	88	94
  94	2	89	90
  95	1	89	95
  96	1	90	96
  97	2	97	98
  98	2	97	102
  99	1	97	103
 100	2	98	99
 101	1	98	104
 102	2	99	100
 103	1	99	105
 104	2	100	101
 105	1	100	106
 106	2	101	102
 107	1	101	107
 108	1	102	108
 109	2	109	110
 110	2	109	114
 111	1	109	115
 112	2	110	111
 113	1	110	116
 114	2	111	112
 115	1	111	117
 116	2	112	113
 117	1	112	118
 118	2	113	114
 119	1	113	119
 120	1	114	120
 121	2	121	122
 122	2	121	126
 123	1	121	127
 124	2	122	123
 125	1	122	128
 126	2	123	124
 127	1	123	129
 128	2	124	125
 129	1	124	130
 130	2	125	126
 131	1	125	131
 132	1	126	132
 133	2	133	134
 134	2	133	138
 135	1	133	139
 136	2	134	135
 137	1	134	140
 138	2	135	136
 139	1	135	141
 140	2	136	137
 141	1	136	142
 142	2	137	138
 143	1	137	143
 144	1	138	144
 145	2	145	146
 146	2	145	150
 147	1	145	151
 148	2	146	147
 149	1	146	152
 150	2	147	148
 151	1	147	153
 152	2	148	149
 153	1	148	154
 154	2	149	150
 155	1	149	155
 156	1	150	156
 157	2	157	158
 158	2	157	162
 159	1	157	163
 160	2	158	159
 161	1	158	164
 162	2	159	160
 163	1	159	165
 164	2	160	161
 165	1	160	166
 166	2	161	162
 167	1	161	167
 168	1	162	168
 169	2	169	170
 170	2	169	174
 171	1	169	175
 172	2	170	171
 173	1	170	176
 174	2	171	172
 175	1	171	177
 176	2	172	173
 177	1	172	178
 178	2	173	174
 179	1	173	179
 180	1	174	180
 181	2	181	182
 182	2	181	186
 183	1	181	187
 184	2	182	183
 185	1	182	188
 186	2	183	184
 187	1	183	189
 188	2	184	185
 189	1	184	190
 190	2	185	186
 191	1	185	191
 192	1	186	192
 193	2	193	194
 194	2	193	198
 195	1	193	199
 196	2	194	195
 197	1	194	200
 198	2	195	196
 199	1	195	201
 200	2	196	197
 201	1	196	202
 202	2	197	198
 203	1	197	203
 204	1	198	204
 205	2	205	206
 206	2	205	210
 207	1	205	211
 208	2	206	207
 209	1	206	212
 210	2	207	208
 211	1	207	213
 212	2	208	209
 213	1	208	214
 214	2	209	210
 215	1	209	215
 216	1	210	216
 217	2	217	218
 218	2	217	222
 219	1	217	223
 220	2	218	219
 221	1	218	224
 222	2	219	220
 223	1	219	225
 224	2	220	221
 225	1	220	226
 226	2	221	222
 227	1	221	227
 228	1	222	228
 229	2	229	230
 230	2	229	234
 231	1	229	235
 232	2	230	231
 233	1	230	236
 234	2	231	232
 235	1	231	237
 236	2	232	233
 237	1	232	238
 238	2	233	234
 239	1	233	239
 240	1	234	240

Angles

   1	2	2	1	6
   2	1	2	1	7
   3	1	6	1	7
   4	2	1	2	3
   5	1	1	2	8
   6	1	3	2	8
   7	2	2	3	4
   8	1	2	3	9
   9	1	4	3	9
  10	2	3	4	5
  11	1	3	4	10
  12	1	5	4	10
  13	2	4	5	6
  14	1	4	5	11
  15	1	6	5	11
  16	2	1	6	5
  17	1	1	6	12
  18	1	5	6	12
  19	2	14	13	18
  20	1	14	13	19
  21	1	18	13	19
  22	2	13	14	15
  23	1	13	14	20
  24	1	15	14	20
  25	2	14	15	16
  26	1	14	15	21
  27	1	16	15	21
  28	2	15	16	17
  29	1	15	16	22
  30	1	17	16	22
  31	2	16	17	18
  32	1	16	17	23
  33	1	18	17	23
  34	2	13	18	17
  35	1	13	18	24
  36	1	17	18	24
  37	2	26	25	30
  38	1	26	25	31
  39	1	30	25	31
  40	2	25	26	27
  41	1	25	26	32
  42	1	27	26	32
  43	2	26	27	28
  44	1	26	27	33
  45	1	28	27	33
  46	2	27	28	29
  47	1	27	28	34
  48	1	29	28	34
  49	2	28	29	30
  50	1	28	29	35
  51	1	30	29	35
  52	2	25	30	29
  53	1	25	30	36
  54	1	29	30	36
  55	2	38	37	42
  56	1	38	37	43
  57	1	42	37	43
  58	2	37	38	39
  59	1	37	38	44
  60	1	39	38	44
  61	2	38	39	40
  62	1	38	39	45
  63	1	40	39	45
  64	2	39	40	41
  65	1	39	40	46
  66	1	41	40	46
  67	2	40	41	42
  68	1	40	41	47
  69	1	42	41	47
  70	2	37	42	41
  71	1	37	42	48
  72	1	41	42	48
  73	2	50	49	54
  74	1	50	49	55
  75	1	54	49	55
  76	2	49	50	51
  77	1	49	50	56
  78	1	51	50	56
  79	2	50	51	52
  80	1	50	51	57
  81	1	52	51	57
  82	2	51	52	53
  83	1	51	52	58
  84	1	53	52	58
  85	2	52	53	54
  86	1	52	53	59
  87	1	54	53	59
  88	2	49	54	53
  89	1	49	54	60
  90	1	53	54	60
  91	2	62	61	66
  92	1	62	61	67
  93	1	66	61	67
  94	2	61	62	63
  95	1	61	62	68
  96	1	63	62	68
  97	2	62	63	64
  98	1	62	63	69
  99	1	64	63	69
 100	2	63	64	65
 101	1	63	64	70
 102	1	65	64	70
 103	2	64	65	66
 104	1	64	65	71
 105	1	66	65	71
 106	2	61	66	65
 107	1	61	66	72
 108	1	65	66	72
 109	2	74	73	78
 110	1	74	73	79
 111	1	78	73	79
 112	2	73	74	75
 113	1	73	74	80
 114	1	75	74	80
 115	2	74	75	76
 116	1	74	75	81
 117	1	76	75	81
 118	2	75	76	77
 119	1	75	76	82
 120	1	77	76	82
 121	2	76	77	78
 122	1	76	77	83
 123	1	78	77	83
 124	2	73	78	77
 125	1	73	78	84
 126	1	77	78	84
 127	2	86	85	90
 128	1	86	85	91
 129	1	90	85	91
 130	2	85	86	87
 131	1	85	86	92
 132	1	87	86	92
 133	2	86	87	88
 134	1	86	87	93
 135	1	88	87	93
 136	2	87	88	89
 137	1	87	88	94
 138	1	89	88	94
 139	2	88	89	90
 140	1	88	89	95
 141	1	90	89	95
 142	2	85	90	89
 143	1	85	90	96
 144	1	89	90	96
 145	2	98	97	102
 146	1	98	97	103
 147	1	102	97	103
 148	2	97	98	99
 149	1	97	98	104
 150	1	99	98	104
 151	2	98	99	100
 152	1	98	99	105
 153	1	100	99	105
 154	2	99	100	101
 155	1	99	100	106
 156	1	101	100	106
 157	2	100	101	102
 158	1	100	101	107
 159	1	102	101	107
 160	2	97	102	101
 161	1	97	102	108
 162	1	101	102	108
 163	2	110	109	114
 164	1	110	109	115
 165	1	114	109	115
 166	2	109	110	111
 167	1	109	110	116
 168	1	111	110	116
 169	2	110	111	112
 170	1	110	111	117
 171	1	112	111	117
 172	2	111	112	113
 173	1	111	112	118
 174	1	113	112	118
 175	2	112	113	114
 176	1	112	113	119
 177	1	114	113	119
 178	2	109	114	113
 179	1	109	114	120
 180	1	113	114	120
 181	2	122	121	126
 182	1	122	121	127
 183	1	126	121	127
 184	2	121	122	123
 185	1	121	122	128
 186	1	123	122	128
 187	2	122	123	124
 188	1	122	123	129
 189	1	124	123	129
 190	2	123	124	125
 191	1	123	124	130
 192	1	125	124	130
 193	2	124	125	126
 194	1	124	125	131
 195	1	126	125	131
 196	2	121	126	125
 197	1	121	126	132
 198	1	125	126	132
 199	2	134	133	138
 200	1	134	133	139
 201	1	138	133	139
 202	2	133	134	135
 203	1	133	134	140
 204	1	135	134	140
 205	2	134	135	136
 206	1	134	135	141
 207	1	136	135	141
 208	2	135	136	137
 209	1	135	136	142
 210	1	137	136	142
 211	2	136	137	138
 212	1	136	137	143
 213	1	138	137	143
 214	2	133	138	137
 215	1	133	138	144
 216	1	137	138	144
 217	2	146	145	150
 218	1	146	145	151
 219	1	150	145	151
 220	2	145	146	147
 221	1	145	146	152
 222	1	147	146	152
 223	2	146	147	148
 224	1	146	147	153
 225	1	148	147	153
 226	2	147	148	149
 227	1	147	148	154
 228	1	149	148	154
 229	2	148	149	150
 230	1	148	149	155
 231	1	150	149	155
 232	2	145	150	149
 233	1	145	150	156
 234	1	149	150	156
 235	2	158	157	162
 236	1	158	157	163
 237	1	162	157	163
 238	2	157	158	159
 239	1	157	158	164
 240	1	159	158	164
 241	2	158	159	160
 242	1	158	159	165
 243	1	160	159	165
 244	2	159	160	161
 245	1	159	160	166
 246	1	161	160	166
 247	2	160	161	162
 248	1	160	161	167
 249	1	162	161	167
 250	2	157	162	161
 251	1	157	162	168
 252	1	161	162	168
 253	2	170	169	174
 254	1	170	169	175
 255	1	174	169	175
 256	2	169	170	171
 257	1	169	170	176
 258	1	171	170	176
 259	2	170	171	172
 260	1	170	171	177
 261	1	172	171	177
 262	2	171	172	173
 263	1	171	172	178
 264	1	173	172	178
 265	2	172	173	174
 266	1	172	173	179
 267	1	174	173	179
 268	2	169	174	173
 269	1	169	174	180
 270	1	173	174	180
 271	2	182	181	186
 272	1	182	181	187
 273	1	186	181	187
 274	2	181	182	183
 275	1	181	182	188
 276	1	183	182	188
 277	2	182	183	184
 278	1	182	183	189
 279	1	184	183	189
 280	2	183	184	185
 281	1	183	184	190
 282	1	185	184	190
 283	2	184	185	186
 284	1	184	185	191
 285	1	186	185	191
 286	2	181	186	185
 287	1	181	186	192
 288	1	185	186	192
 289	2	194	193	198
 290	1	194	193	199
 291	1	198	193	199
 292	2	193	194	195
 293	1	193	194	200
 294	1	195	194	200
 295	2	194	195	196
 296	1	194	195	201
 297	1	196	195	201
 298	2	195	196	197
 299	1	195	196	202
 300	1	197	196	202
 301	2	196	197	198
 302	1	196	197	203
 303	1	198	197	203
 304	2	193	198	197
 305	1	193	198	204
 306	1	197	198	204
 307	2	206	205	210
 308	1	206	205	211
 309	1	210	205	211
 310	2	205	206	207
 311	1	205	206	212
 312	1	207	206	212
 313	2	206	207	208
 314	1	206	207	213
 315	1	208	207	213
 316	2	207	208	209
 317	1	207	208	214
 318	1	209	208	214
 319	2	208	209	210
 320	1	208	209	215
 321	1	210	209	215
 322	2	205	210	209
 323	1	205	210	216
 324	1	209	210	216
 325	2	218	217	222
 326	1	218	217	223
 327	1	222	217	223
 328	2	217	218	219
 329	1	217	218	224
 330	1	219	218	224
 331	2	218	219	220
 332	1	218	219	225
 333	1	220	219	225
 334	2	219	220	221
 335	1	219	220	226
 336	1	221	220	226
 337	2	220	221	222
 338	1	220	221	227
 339	1	222	221	227
 340	2	217	222	221
 341	1	217	222	228
 342	1	221	222	228
 343	2	230	229	234
 344	1	230	229	235
 345	1	234	229	235
 346	2	229	230	231
 347	1	229	230	236
 348	1	231	230	236
 349	2	230	231	232
 350	1	230	231	237
 351	1	232	231	237
 352	2	231	232	233
 353	1	231	232	238
 354	1	233	232	238
 355	2	232	233	234
 356	1	232	233	239
 357	1	234	233	239
 358	2	229	234	233
 359	1	229	234	240
 360	1	233	234	240

Dihedrals

   1	1	6	1	2	3
   2	1	6	1	2	8
   3	1	7	1	2	3
   4	1	7	1	2	8
   5	1	2	1	6	5
   6	1	2	1	6	12
   7	1	7	1	6	5
   8	1	7	1	6	12
   9	1	1	2	3	4
  10	1	1	2	3	9
  11	1	8	2	3	4
  12	1	8	2	3	9
  13	1	2	3	4	5
  14	1	2	3	4	10
  15	1	9	3	4	5
  16	1	9	3	4	10
  17	1	3	4	5	6
  18	1	3	4	5	11
  19	1	10	4	5	6
  20	1	10	4	5	11
  21	1	4	5	6	1
  22	1	4	5	6	12
  23	1	11	5	6	1
  24	1	11	5	6	12
  25	1	18	13	14	15
  26	1	18	13	14	20
  27	1	19	13	14	15
  28	1	19	13	14	20
  29	1	14	13	18	17
  30	1	14	13	18	24
  31	1	19	13	18	17
  32	1	19	13	18	24
  33	1	13	14	15	16
  34	1	13	14	15	21
  35	1	20	14	15	16
  36	1	20	14	15	21
  37	1	14	15	16	17
  38	1	14	15	16	22
  39	1	21	15	16	17
  40	1	21	15	16	22
  41	1	15	16	17	18
  42	1	15	16	17	23
  43	1	22	16	17	18
  44	1	22	16	17	23
  45	1	16	17	18	13
  46	1	16	17	18	24
  47	1	23	17	18	13
  48	1	23	17	18	24
  49	1	30	25	26	27
  50	1	30	25	26	32
  51	1	31	25	26	27
  52	1	31	25	26	32
  53	1	26	25	30	29
  54	1	26	25	30	36
  55	1	31	25	30	29
  56	1	31	25	30	36
  57	1	25	26	27	28
  58	1	25	26	27	33
  59	1	32	26	27	28
  60	1	32	26	27	33
  61	1	26	27	28	29
  62	1	26	27	28	34
  63	1	33	27	28	29
  64	1	33	27	28	34
  65	1	27	28	29	30
  66	1	27	28	29	35
  67	1	34	28	29	30
  68	1	34	28	29	35
  69	1	28	29	30	25
  70	1	28	29	30	36
  71	1	35	29	30	25
  72	1	35	29	30	36
  73	1	42	37	38	39
  74	1	42	37	38	44
  75	1	43	37	38	39
  76	1	43	37	38	44
  77	1	38	37	42	41
  78	1	38	37	42	48
  79	1	43	37	42	41
  80	1	43	37	42	48
  81	1	37	38	39	40
  82	1	37	38	39	45
  83	1	44	38	39	40
  84	1	44	38	39	45
  85	1	38	39	40	41
  86	1	38	39	40	46
  87	1	45	39	40	41
  88	1	45	39	40	46
  89	1	39	40	41	42
  90	1	39	40	41	47
  91	1	46	40	41	42
  92	1	46	40	41	47
  93	1	40	41	42	37
  94	1	40	41	42	48
  95	1	47	41	42	37
  96	1	47	41	42	48
  97	1	54	49	50	51
  98	1	54	49	50	56
  99	1	55	49	50	51
 100	1	55	49	50	56
 101	1	50	49	54	53
 102	1	50	49	54	60
 103	1	55	49	54	53
 104	1	55	49	54	60
 105	1	49	50	51	52
 106	1	49	50	51	57
 107	1	56	50	51	52
 108	1	56	50	51	57
 109	1	50	51	52	53
 110	1	50	51	52	58
 111	1	57	51	52	53
 112	1	57	51	52	58
 113	1	51	52	53	54
 114	1	51	52	53	59
 115	1	58	52	53	54
 116	1	58	52	53	59
 117	1	52	53	54	49
 118	1	52	53	54	60
 119	1	59	53	54	49
 120	1	59	53	54	60
 121	1	66	61	62	63
 122	1	66	61	62	68
 123	1	67	61	62	63
 124	1	67	61	62	68
 125	1	62	61	66	65
 126	1	62	61	66	72
 127	1	67	61	66	65
 128	1	67	61	66	72
 129	1	61	62	63	64
 130	1	61	62	63	69
 131	1	68	62	63	64
 132	1	68	62	63	69
 133	1	62	63	64	65
 134	1	62	63	64	70
 135	1	69	63	64	65
 136	1	69	63	64	70
 137	1	63	64	65	66
 138	1	63	64	65	71
 139	1	70	64	65	66
 140	1	70	64	65	71
 141	1	64	65	66	61
 142	1	64	65	66	72
 143	1	71	65	66	61
 144	1	71	65	66	72
 145	1	78	73	74	75
 146	1	78	73	74	80
 147	1	79	73	74	75
 148	1	79	73	74	80
 149	1	74	73	78	77
 150	1	74	73	78	84
 151	1	79	73	78	77
 152	1	79	73	78	84
 153	1	73	74	75	76
 154	1	73	74	75	81
 155	1	80	74	75	76
 156	1	80	74	75	81
 157	1	74	75	76	77
 158	1	74	75	76	82
 159	1	81	75	76	77
 160	1	81	75	76	82
 161	1	75	76	77	78
 162	1	75	76	77	83
 163	1	82	76	77	78
 164	1	82	76	77	83
 165	1	76	77	78	73
 166	1	76	77	78	84
 167	1	83	77	78	73
 168	1	83	77	78	84
 169	1	90	85	86	87
 170	1	90	85	86	92
 171	1	91	85	86	87
 172	1	91	85	86	92
 173	1	86	85	90	89
 174	1	86	85	90	96
 175	1	91	85	90	89
 176	1	91	85	90	96
 177	1	85	86	87	88
 178	1	85	86	87	93
 179	1	92	86	87	88
 180	1	92	86	87	93
 181	1	86	87	88	89
 182	1	86	87	88	94
 183	1	93	87	88	89
 184	1	93	87	88	94
 185	1	87	88	89	90
 186	1	87	88	89	95
 187	1	94	88	89	90
 188	1	94	88	89	95
 189	1	88	89	90	85
 190	1	88	89	90	96
 191	1	95	89	90	85
 192	1	95	89	90	96
 193	1	102	97	98	99
 194	1	102	97	98	104
 195	1	103	97	98	99
 196	1	103	97	98	104
 197	1	98	97	102	101
 198	1	98	97	102	108
 199	1	103	97	102	101
 200	1	103	97	102	108
 201	1	97	98	99	100
 202	1	97	98	99	105
 203	1	104	98	99	100
 204	1	104	98	99	105
 205	1	98	99	100	101
 206	1	98	99	100	106
 207	1	105	99	100	101
 208	1	105	99	100	106
 209	1	99	100	101	102
 210	1	99	100	101	107
 211	1	106	100	101	102
 212	1	106	100	101	107
 213	1	100	101	102	97
 214	1	100	101	102	108
 215	1	107	101	102	97
 216	1	107	101	102	108
 217	1	114	109	110	111
 218	1	114	109	110	116
 219	1	115	109	110	111
 220	1	115	109	110	116
 221	1	110	109	114	113
 222	1	110	109	114	120
 223	1	115	109	114	113
 224	1	115	109	114	120
 225	1	109	110	111	112
 226	1	109	110	111	117
 227	1	116	110	111	112
 228	1	116	110	111	117
 229	1	110	111	112	113
 230	1	110	111	112	118
 231	1	117	111	112	113
 232	1	117	111	112	118
 233	1	111	112	113	114
 234	1	111	112	113	119
 235	1	118	112	113	114
 236	1	118	112	113	119
 237	1	112	113	114	109
 238	1	112	113	114	120
 239	1	119	113	114	109
 240	1	119	113	114	120
 241	1	126	121	122	123
 242	1	126	121	122	128
 243	1	127	121	122	123
 244	1	127	121	122	128
 245	1	122	121	126	125
 246	1	122	121	126	132
 247	1	127	121	126	125
 248	1	127	121	126	132
 249	1	121	122	123	124
 250	1	121	122	123	129
 251	1	128	122	123	124
 252	1	128	122	123	129
 253	1	122	123	124	125
 254	1	122	123	124	130
 255	1	129	123	124	125
 256	1	129	123	124	130
 257	1	123	124	125	126
 258	1	123	124	125	131
 259	1	130	124	125	126
 260	1	130	124	125	131
 261	1	124	125	126	121
 262	1	124	125	126	132
 263	1	131	125	126	121
 264	1	131	125	126	132
 265	1	138	133	134	135
 266	1	138	133	134	140
 267	1	139	133	134	135
 268	1	139	133	134	140
 269	1	134	133	138	137
 270	1	134	133	138	144
 271	1	139	133	138	137
 272	1	139	133	138	144
 273	1	133	134	135	136
 274	1	133	134	135	141
 275	1	140	134	135	136
 276	1	140	134	135	141
 277	1	134	135	136	137
 278	1	134	135	136	142
 279	1	141	135	136	137
 280	1	141	135	136	142
 281	1	135	136	137	138
 282	1	135	136	137	143
 283	1	142	136	137	138
 284	1	142	136	137	143
 285	1	136	137	138	133
 286	1	136	137	138	144
 287	1	143	137	138	133
 288	1	143	137	138	144
 289	1	150	145	146	147
 290	1	150	145	146	152
 291	1	151	145	146	147
 292	1	151	145	146	152
 293	1	146	145	150	149
 294	1	146	145	150	156
 295	1	151	145	150	149
 296	1	151	145	150	156
 297	1	145	146	147	148
 298	1	145	146	147	153
 299	1	152	146	147	148
 300	1	152	146	147	153
 301	1	146	147	148	149
 302	1	146	147	148	154
 303	1	153	147	148	149
 304	1	153	147	148	154
 305	1	147	148	149	150
 306	1	147	148	149	155
 307	1	154	148	149	150
 308	1	154	148	149	155
 309	1	148	149	150	145
 310	1	148	149	150	156
 311	1	155	149	150	145
 312	1	155	149	150	156
 313	1	162	157	158	159
 314	1	162	157	158	164
 315	1	163	157	158	159
 316	1	163	157	158	164
 317	1	158	157	162	161
 318	1	158	157	162	168
 319	1	163	157	162	161
 320	1	163	157	162	168
 321	1	157	158	159	160
 322	1	157	158	159	165
 323	1	164	158	159	160
 324	1	164	158	159	165
 325	1	158	159	160	161
 326	1	158	159	160	166
 327	1	165	159	160	161
 328	1	165	159	160	166
 329	1	159	160	161	162
 330	1	159	160	161	167
 331	1	166	160	161	162
 332	1	166	160	161	167
 333	1	160	161	162	157
 334	1	160	161	162	168
 335	1	167	161	162	157
 336	1	167	161	162	168
 337	1	174	169	170	171
 338	1	174	169	170	176
 339	1	175	169	170	171
 340	1	175	169	170	176
 341	1	170	169	174	173
 342	1	170	169	174	180
 343	1	175	169	174	173
 344	1	175	169	174	180
 345	1	169	170	171	172
 346	1	169	170	171	177
 347	1	176	170	171	172
 348	1	176	170	171	177
 349	1	170	171	172	173
 350	1	170	171	172	178
 351	1	177	171	172	173
 352	1	177	171	172	178
 353	1	171	172	173	174
 354	1	171	172	173	179
 355	1	178	172	173	174
 356	1	178	172	173	179
 357	1	172	173	174	169
 358	1	172	173	174	180
 359	1	179	173	174	169
 360	1	179	173	174	180
 361	1	186	181	182	183
 362	1	186	181	182	188
 363	1	187	181	182	183
 364	1	187	181	182	188
 365	1	182	181	186	185
 366	1	182	181	186	192
 367	1	187	181	186	185
 368	1	187	181	186	192
 369	1	181	182	183	184
 370	1	181	182	183	189
 371	1	188	182	183	184
 372	1	188	182	183	189
 373	1	182	183	184	185
 374	1	182	183	184	190
 375	1	189	183	184	185
 376	1	189	183	184	190
 377	1	183	184	185	186
 378	1	183	184	185	191
 379	1	190	184	185	186
 380	1	190	184	185	191
 381	1	184	185	186	181
 382	1	184	185	186	192
 383	1	191	185	186	181
 384	1	191	185	186	192
 385	1	198	193	194	195
 386	1	198	193	194	200
 387	1	199	193	194	195
 388	1	199	193	194	200
 389	1	194	193	198	197
 390	1	194	193	198	204
 391	1	199	193	198	197
 392	1	199	193	198	204
 393	1	193	194	195	196
 394	1	193	194	195	201
 395	1	200	194	195	196
 396	1	200	194	195	201
 397	1	194	195	196	197
 398	1	194	195	196	202
 399	1	201	195	196	197
 400	1	201	195	196	202
 401	1	195	196	197	198
 402	1	195	196	197	203
 403	1	202	196	197	198
 404	1	202	196	197	203
 405	1	196	197	198	193
 406	1	196	197	198	204
 407	1	203	197	198	193
 408	1	203	197	198	204
 409	1	210	205	206	207
 410	1	210	205	206	212
 411	1	211	205	206	207
 412	1	211	205	206	212
 413	1	206	205	210	209
 414	1	206	205	210	216
 415	1	211	205	210	209
 416	1	211	205	210	216
 417	1	205	206	207	208
 418	1	205	206	207	213
 419	1	212	206	207	208
 420	1	212	206	207	213
 421	1	206	207	208	209
 422	1	206	207	208	214
 423	1	213	207	208	209
 424	1	213	207	208	214
 425	1	207	208	209	210
 426	1	207	208	209	215
 427	1	214	208	209	210
 428	1	214	208	209	215
 429	1	208	209	210	205
 430	1	208	209	210	216
 431	1	215	209	210	205
 432	1	215	209	210	216
 433	1	222	217	218	219
 434	1	222	217	218	224
 435	1	223	217	218	219
 436	1	223	217	218	224
 437	1	218	217	222	221
 438	1	218	217	222	228
 439	1	223	217	222	221
 440	1	223	217	222	228
 441	1	217	218	219	220
 442	1	217	218	219	225
 443	1	224	218	219	220
 444	1	224	218	219	225
 445	1	218	219	220	221
 446	1	218	219	220	226
 447	1	225	219	220	221
 448	1	225	219	220	226
 449	1	219	220	221	222
 450	1	219	220	221	227
 451	1	226	220	221	222
 452	1	226	220	221	227
 453	1	220	221	222	217
 454	1	220	221	222	228
 455	1	227	221	222	217
 456	1	227	221	222	228
 457	1	234	229	230	231
 458	1	234	229	230	236
 459	1	235	229	230	231
 460	1	235	229	230	236
 461	1	230	229	234	233
 462	1	230	229	234	240
 463	1	235	229	234	233
 464	1	235	229	234	240
 465	1	229	230	231	232
 466	1	229	230	231	237
 467	1	236	230	231	232
 468	1	236	230	231	237
 469	1	230	231	232	233
 470	1	230	231	232	238
 471	1	237	231	232	233
 472	1	237	231	232	238
 473	1	231	232	233	234
 474	1	231	232	233	239
 475	1	238	232	233	234
 476	1	238	232	233	239
 477	1	232	233	234	229
 478	1	232	233	234	240
 479	1	239	233	234	229
 480	1	239	233	234	240

